\ENCODING=ISO-8859-1
\Problem name: instances

Maximize
 obj:
Subject To
 c1: 46 x1 + 70 x2 + x3 + 80 x4 - 12 x5 + 60 x6 + 77 x7 - 74 x8 - 30 x9
     + 98 x10 <= 197
 c2: 60 x1 + 76 x2 + 80 x3 + 28 x4 - 81 x5 + 48 x6 + 28 x7 + 91 x8 - 33 x9
     + 98 x10 <= 204
 c3: 32 x1 + 58 x3 + 35 x4 + 19 x5 + 16 x6 + 66 x7 + 25 x8 + 84 x9 + 47 x10
     <= 108
 c4: 7 x1 + 37 x2 + 84 x3 + 49 x4 + 43 x5 + 34 x6 + 96 x7 + 33 x8 + 69 x10
     <= 221
 c5: 15 x2 + 76 x3 + 22 x4 + 92 x5 + 63 x6 - 39 x7 + 38 x8 + 39 x9 + 91 x10
     <= 151
Bounds
      x1 >= 0
      x2 >= 0
      x3 >= 0
      x4 >= 0
      x5 >= 0
      x6 >= 0
      x7 >= 0
      x8 >= 0
      x9 >= 0
      x10 >= 0
Generals
 x1  x2  x3  x4  x5  x6  x7  x8  x9  x10 
End
